20	5
0	3	2	1	3
1	2	5	12
2	1	4
3	1	13
4	1	8
5	1	9
6	0
7	1	19
8	1	12
9	1	16
10	2	12	9
11	1	7
12	1	14
13	1	10
14	1	11
15	1	6
16	1	18
17	1	15
18	1	20
19	1	17
20	1	21
21	0
0	0	0	0	0	0	0
1	7	3	2	4	1	5
2	9	3	1	2	4	3
3	5	1	1	3	2	5
4	5	2	1	1	3	1
5	7	4	3	5	5	4
6	3	4	3	1	5	2
7	2	1	2	4	1	3
8	6	2	4	2	4	5
9	7	2	5	3	4	1
10	1	3	5	2	2	1
11	2	4	3	4	3	4
12	7	4	2	1	1	2
13	2	3	2	3	4	4
14	8	3	5	3	4	3
15	10	4	3	3	4	1
16	7	5	3	3	1	2
17	9	5	3	4	5	1
18	4	5	1	2	4	3
19	6	4	1	5	1	4
20	10	4	4	3	1	1
21	0	0	0	0	0	0
7	6	7	7	9
